28 43 114 171 182 18 25 103 8 168 2 9 64 12 65 145 193 194 192 97 74 40 146 73 129 56 24 144 164 72 106 30 172 199 55 163 116 76 86 157 11 105 98 23 78 159 162 130 93 44 173 94 117 61 87 31 138 148 63 16 166 88 167 108 175 69 77 79 170 107 137 82 176 6 189 10 128 71 147 196 198 127 158 21 184 70 29 91 5 186 185 104 152 48 38 154 140 54 62 188 181 53 37 161 174 80 45 131 75 60 66 136 46 39 4 58 19 81 95 90 187 126 15 132 32 17 1 36 50 110 102 67 14 124 26 3 142 118 59 68 49 41 89 169 139 115 84 151 141 160 179 22 111 27 143 122 155 113 177 101 20 133 100 119 7 96 178 52 121 51 120 125 190 156 191 47 83 134 195 112 99 135 92 150 34 85 57 183 0 33 180 42 149 123 197 153 165 13 109 35